%mem=50GB
%nprocshared=32
%chk=cdc_axi_exo_E03_I2.chk
# opt=calcfc freq=noraman utpsstpss empiricaldispersion=gd3bj def2svp

CDC [(L0)Cu(I)(OH)(CmO)](ch) opt+freq TPSS-D3 DEF2-SVP from IRC

1 1
 C                 -4.25134800    1.98436300    0.15956200
 C                 -2.88810700    1.66730900    0.02532000
 C                 -3.36824200   -0.63834100    0.10011100
 C                 -4.74096900   -0.37056700    0.25799000
 H                 -4.57853800    3.02562900    0.13634000
 H                 -5.45422400   -1.19070600    0.35610900
 C                 -2.84504900   -2.02713900   -0.00914800
 C                 -3.69618600   -3.12961800   -0.21677900
 C                 -3.13775000   -4.40699100   -0.33011800
 H                 -4.77636900   -2.99902400   -0.31162600
 C                 -0.97648000   -3.39824900   -0.03187500
 C                 -1.74891500   -4.54973800   -0.23344900
 H                 -3.78060800   -5.27602800   -0.49928000
 H                  0.11382200   -3.46087000    0.03720700
 H                 -1.26797100   -5.52821500   -0.31835900
 C                 -1.85433700    2.72094100   -0.17158000
 C                 -2.08921600    4.08580800    0.07985700
 C                  0.32741300    3.15607200   -0.84250300
 C                 -1.05533600    5.00078100   -0.15643700
 H                 -3.04968300    4.43446300    0.46733400
 C                  0.17669200    4.53424400   -0.63284600
 H                  1.26937100    2.72443000   -1.19764300
 H                 -1.21190200    6.06668400    0.03525400
 H                  1.00564000    5.21957600   -0.83129500
 N                 -2.47348600    0.37541200    0.02873500
 N                 -1.50723500   -2.17368000    0.07817600
 N                 -0.66025700    2.28208000   -0.61905200
 Cu                -0.49255200   -0.07620000   -0.29774600
 O                 -0.91839300   -0.41972100   -2.08677100
 H                 -0.78365900    0.45489400   -2.50653700
 O                  1.33843700   -0.05270500   -0.54833500
 C                  2.16095900   -0.61184400   -1.57016000
 C                  2.08985200    0.19023200   -2.88190300
 H                  2.84247800   -0.17851800   -3.59884600
 H                  1.09002100    0.07463900   -3.32531400
 H                  2.28510200    1.26019800   -2.70322800
 C                  1.78809400   -2.07715400   -1.82318600
 H                  2.44929400   -2.53219100   -2.57953900
 H                  1.86191400   -2.66164800   -0.89183000
 H                  0.74944400   -2.09858700   -2.18732800
 C                 -0.34001100   -0.44082800    2.21357700
 H                 -1.40730900   -0.68570500    2.26941300
 C                  0.03242100    0.85963400    1.99285300
 H                 -0.75074700    1.61672500    1.87629000
 C                 -5.18281200    0.95288900    0.29498100
 H                 -6.24676800    1.17835700    0.41159500
 C                  3.54347800   -0.44752200   -0.89927200
 C                  4.00336400    0.85338400   -0.59638400
 C                  4.34651200   -1.54500800   -0.53210500
 C                  5.23111900    1.05405300    0.04115400
 H                  3.38965200    1.71772300   -0.86534600
 C                  5.58180800   -1.34566400    0.09834100
 H                  4.02081200   -2.56472000   -0.75059000
 C                  6.02584100   -0.04821900    0.39483500
 H                  5.57230900    2.07067300    0.26205400
 H                  6.20183400   -2.20975500    0.35828600
 H                  6.98767100    0.10348300    0.89499400
 C                  1.46116300    1.31276800    2.05697700
 H                  1.83913600    1.34708000    1.01427900
 H                  1.50444200    2.34355100    2.45149700
 C                  0.63311100   -1.50803000    2.62870700
 H                  0.40590000   -2.45538600    2.10980300
 H                  0.41449100   -1.71179700    3.69911300
 C                  2.10417700   -1.10567200    2.44632000
 H                  2.37466400   -1.21020000    1.38392500
 H                  2.75084500   -1.78986400    3.02145800
 C                  2.34548500    0.35017600    2.87142200
 H                  3.40642700    0.61476900    2.72763300
 H                  2.12261300    0.47044300    3.94908200

